c This Formular is generated by mcnf
c
c    horn? no 
c    forced? no 
c    mixed sat? no 
c    clause length = 3 
c
p cnf 20  91 
 -18 1 5 0
-6 12 11 0
-13 -18 -20 0
-12 11 7 0
-7 -2 -1 0
13 -15 3 0
-11 20 -6 0
4 -18 -19 0
13 -5 20 0
12 14 10 0
20 1 -10 0
16 11 -20 0
-20 7 -18 0
10 20 17 0
19 17 1 0
15 3 8 0
4 3 20 0
3 -8 -1 0
-10 -14 -8 0
18 -14 16 0
20 -11 5 0
%
0

10 60 65 50 70 57 78 76 90 67 48 83 1 37 92 31 91 51 46 70
